Minimize
	value: tt

Subject to
tt + 1000 s_1_1 > 0.0
tt - t_1_1 - 1001.232924 s_1_1  + 1.232924 s_1_7  > -998.735411
tt + 1000 s_2_1 > 0.0
tt - t_2_1 - 1001.006486 s_2_1  + 1.006486 s_2_7  > -992.105647
tt + 1000 s_1_2 > 0.0
tt - t_1_2 - 1001.232924 s_1_2  + 1.232924 s_1_8  > -998.443600
tt + 1000 s_2_2 > 0.0
tt - t_2_2 - 1001.006486 s_2_2  + 1.006486 s_2_8  > -991.381716
tt + 1000 s_1_3 > 0.0
tt - t_1_3 - 1001.232924 s_1_3  + 1.232924 s_1_8  > -998.352944
tt + 1000 s_2_3 > 0.0
tt - t_2_3 - 1001.006486 s_2_3  + 1.006486 s_2_8  > -987.212582
tt + 1000 s_1_4 > 0.0
tt - t_1_4 - 1002.465847 s_1_4  + 1.232924 s_1_8  + 1.232924 s_1_3  > -999.081500
tt + 1000 s_2_4 > 0.0
tt - t_2_4 - 1002.012972 s_2_4  + 1.006486 s_2_8  + 1.006486 s_2_3  > -992.750181
tt + 1000 s_1_5 > 0.0
tt - t_1_5 - 1002.465847 s_1_5  + 1.232924 s_1_7  + 1.232924 s_1_8  > -999.154778
tt + 1000 s_2_5 > 0.0
tt - t_2_5 - 1002.012972 s_2_5  + 1.006486 s_2_7  + 1.006486 s_2_8  > -993.771886
tt + 1000 s_1_6 > 0.0
tt - t_1_6 - 1006.164618 s_1_6  + 1.232924 s_1_3  + 1.232924 s_1_2  + 1.232924 s_1_1  + 1.232924 s_1_5  + 1.232924 s_1_4  > -999.687700
tt + 1000 s_2_6 > 0.0
tt - t_2_6 - 1005.032431 s_2_6  + 1.006486 s_2_3  + 1.006486 s_2_2  + 1.006486 s_2_1  + 1.006486 s_2_5  + 1.006486 s_2_4  > -995.684500
tt + 1000 s_1_7 > 0.0
tt - t_1_7 - 1000.000000 s_1_7  > -995.362206
tt + 1000 s_2_7 > 0.0
tt - t_2_7 - 1000.000000 s_2_7  > -981.304279
tt + 1000 s_1_8 > 0.0
tt - t_1_8 - 1000.000000 s_1_8  > -998.162656
tt + 1000 s_2_8 > 0.0
tt - t_2_8 - 1000.000000 s_2_8  > -993.675957
s_1_1 + s_2_1 = 1
s_1_2 + s_2_2 = 1
s_1_3 + s_2_3 = 1
s_1_4 + s_2_4 = 1
s_1_5 + s_2_5 = 1
s_1_6 + s_2_6 = 1
s_1_7 + s_2_7 = 1
s_1_8 + s_2_8 = 1
s_1_1 + s_1_2 + 1000 r_1_1_2 >= 2
- s_1_1 - s_1_2 - 1000 r_1_1_2 >= -1001
t_1_1 - t_1_2 - 1000.000000 u_1_1_2 - 1.232924 s_1_2  + 1.232924 s_1_8  + 2000.000000 r_1_1_2 > -998.443600
s_2_1 + s_2_2 + 1000 r_2_1_2 >= 2
- s_2_1 - s_2_2 - 1000 r_2_1_2 >= -1001
t_2_1 - t_2_2 - 1000.000000 u_2_1_2 - 1.006486 s_2_2  + 1.006486 s_2_8  + 2000.000000 r_2_1_2 > -991.381716
s_1_1 + s_1_3 + 1000 r_1_1_3 >= 2
- s_1_1 - s_1_3 - 1000 r_1_1_3 >= -1001
t_1_1 - t_1_3 - 1000.000000 u_1_1_3 - 1.232924 s_1_3  + 1.232924 s_1_8  + 2000.000000 r_1_1_3 > -998.352944
s_2_1 + s_2_3 + 1000 r_2_1_3 >= 2
- s_2_1 - s_2_3 - 1000 r_2_1_3 >= -1001
t_2_1 - t_2_3 - 1000.000000 u_2_1_3 - 1.006486 s_2_3  + 1.006486 s_2_8  + 2000.000000 r_2_1_3 > -987.212582
s_1_1 + s_1_4 + 1000 r_1_1_4 >= 2
- s_1_1 - s_1_4 - 1000 r_1_1_4 >= -1001
t_1_1 - t_1_4 - 1000.000000 u_1_1_4 - 2.465847 s_1_4  + 1.232924 s_1_8  + 1.232924 s_1_3  + 2000.000000 r_1_1_4 > -999.081500
s_2_1 + s_2_4 + 1000 r_2_1_4 >= 2
- s_2_1 - s_2_4 - 1000 r_2_1_4 >= -1001
t_2_1 - t_2_4 - 1000.000000 u_2_1_4 - 2.012972 s_2_4  + 1.006486 s_2_8  + 1.006486 s_2_3  + 2000.000000 r_2_1_4 > -992.750181
s_1_1 + s_1_5 + 1000 r_1_1_5 >= 2
- s_1_1 - s_1_5 - 1000 r_1_1_5 >= -1001
t_1_1 - t_1_5 - 1000.000000 u_1_1_5 - 2.465847 s_1_5  + 1.232924 s_1_7  + 1.232924 s_1_8  + 2000.000000 r_1_1_5 > -999.154778
s_2_1 + s_2_5 + 1000 r_2_1_5 >= 2
- s_2_1 - s_2_5 - 1000 r_2_1_5 >= -1001
t_2_1 - t_2_5 - 1000.000000 u_2_1_5 - 2.012972 s_2_5  + 1.006486 s_2_7  + 1.006486 s_2_8  + 2000.000000 r_2_1_5 > -993.771886
t_1_6 - t_1_1 - 1001.232924 s_1_1  + 1.232924 s_1_7  > -998.735411
t_1_6 - t_2_1 - 1001.006486 s_2_1  + 1.006486 s_2_7  > -992.105647
t_2_6 - t_1_1 - 1001.232924 s_1_1  + 1.232924 s_1_7  > -998.735411
t_2_6 - t_2_1 - 1001.006486 s_2_1  + 1.006486 s_2_7  > -992.105647
t_1_1 - t_1_7 - 1000.000000 s_1_7  > -995.362206
t_1_1 - t_2_7 - 1000.000000 s_2_7  > -981.304279
t_2_1 - t_1_7 - 1000.000000 s_1_7  > -995.362206
t_2_1 - t_2_7 - 1000.000000 s_2_7  > -981.304279
s_1_1 + s_1_8 + 1000 r_1_1_8 >= 2
- s_1_1 - s_1_8 - 1000 r_1_1_8 >= -1001
t_1_1 - t_1_8 - 1000.000000 u_1_1_8 - 0.000000 s_1_8  + 2000.000000 r_1_1_8 > -998.162656
s_2_1 + s_2_8 + 1000 r_2_1_8 >= 2
- s_2_1 - s_2_8 - 1000 r_2_1_8 >= -1001
t_2_1 - t_2_8 - 1000.000000 u_2_1_8 - 0.000000 s_2_8  + 2000.000000 r_2_1_8 > -993.675957
s_1_2 + s_1_1 + 1000 r_1_1_2 >= 2
- s_1_2 - s_1_1 - 1000 r_1_1_2 >= -1001
t_1_2 - t_1_1 + 1000.000000 u_1_1_2 - 1.232924 s_1_1  + 1.232924 s_1_7  + 2000.000000 r_1_1_2 > 1.264589
s_2_2 + s_2_1 + 1000 r_2_1_2 >= 2
- s_2_2 - s_2_1 - 1000 r_2_1_2 >= -1001
t_2_2 - t_2_1 + 1000.000000 u_2_1_2 - 1.006486 s_2_1  + 1.006486 s_2_7  + 2000.000000 r_2_1_2 > 7.894353
s_1_2 + s_1_3 + 1000 r_1_2_3 >= 2
- s_1_2 - s_1_3 - 1000 r_1_2_3 >= -1001
t_1_2 - t_1_3 - 1000.000000 u_1_2_3 - 1.232924 s_1_3  + 1.232924 s_1_8  + 2000.000000 r_1_2_3 > -998.352944
s_2_2 + s_2_3 + 1000 r_2_2_3 >= 2
- s_2_2 - s_2_3 - 1000 r_2_2_3 >= -1001
t_2_2 - t_2_3 - 1000.000000 u_2_2_3 - 1.006486 s_2_3  + 1.006486 s_2_8  + 2000.000000 r_2_2_3 > -987.212582
s_1_2 + s_1_4 + 1000 r_1_2_4 >= 2
- s_1_2 - s_1_4 - 1000 r_1_2_4 >= -1001
t_1_2 - t_1_4 - 1000.000000 u_1_2_4 - 2.465847 s_1_4  + 1.232924 s_1_8  + 1.232924 s_1_3  + 2000.000000 r_1_2_4 > -999.081500
s_2_2 + s_2_4 + 1000 r_2_2_4 >= 2
- s_2_2 - s_2_4 - 1000 r_2_2_4 >= -1001
t_2_2 - t_2_4 - 1000.000000 u_2_2_4 - 2.012972 s_2_4  + 1.006486 s_2_8  + 1.006486 s_2_3  + 2000.000000 r_2_2_4 > -992.750181
s_1_2 + s_1_5 + 1000 r_1_2_5 >= 2
- s_1_2 - s_1_5 - 1000 r_1_2_5 >= -1001
t_1_2 - t_1_5 - 1000.000000 u_1_2_5 - 2.465847 s_1_5  + 1.232924 s_1_7  + 1.232924 s_1_8  + 2000.000000 r_1_2_5 > -999.154778
s_2_2 + s_2_5 + 1000 r_2_2_5 >= 2
- s_2_2 - s_2_5 - 1000 r_2_2_5 >= -1001
t_2_2 - t_2_5 - 1000.000000 u_2_2_5 - 2.012972 s_2_5  + 1.006486 s_2_7  + 1.006486 s_2_8  + 2000.000000 r_2_2_5 > -993.771886
t_1_6 - t_1_2 - 1001.232924 s_1_2  + 1.232924 s_1_8  > -998.443600
t_1_6 - t_2_2 - 1001.006486 s_2_2  + 1.006486 s_2_8  > -991.381716
t_2_6 - t_1_2 - 1001.232924 s_1_2  + 1.232924 s_1_8  > -998.443600
t_2_6 - t_2_2 - 1001.006486 s_2_2  + 1.006486 s_2_8  > -991.381716
s_1_2 + s_1_7 + 1000 r_1_2_7 >= 2
- s_1_2 - s_1_7 - 1000 r_1_2_7 >= -1001
t_1_2 - t_1_7 - 1000.000000 u_1_2_7 - 0.000000 s_1_7  + 2000.000000 r_1_2_7 > -995.362206
s_2_2 + s_2_7 + 1000 r_2_2_7 >= 2
- s_2_2 - s_2_7 - 1000 r_2_2_7 >= -1001
t_2_2 - t_2_7 - 1000.000000 u_2_2_7 - 0.000000 s_2_7  + 2000.000000 r_2_2_7 > -981.304279
t_1_2 - t_1_8 - 1000.000000 s_1_8  > -998.162656
t_1_2 - t_2_8 - 1000.000000 s_2_8  > -993.675957
t_2_2 - t_1_8 - 1000.000000 s_1_8  > -998.162656
t_2_2 - t_2_8 - 1000.000000 s_2_8  > -993.675957
s_1_3 + s_1_1 + 1000 r_1_1_3 >= 2
- s_1_3 - s_1_1 - 1000 r_1_1_3 >= -1001
t_1_3 - t_1_1 + 1000.000000 u_1_1_3 - 1.232924 s_1_1  + 1.232924 s_1_7  + 2000.000000 r_1_1_3 > 1.264589
s_2_3 + s_2_1 + 1000 r_2_1_3 >= 2
- s_2_3 - s_2_1 - 1000 r_2_1_3 >= -1001
t_2_3 - t_2_1 + 1000.000000 u_2_1_3 - 1.006486 s_2_1  + 1.006486 s_2_7  + 2000.000000 r_2_1_3 > 7.894353
s_1_3 + s_1_2 + 1000 r_1_2_3 >= 2
- s_1_3 - s_1_2 - 1000 r_1_2_3 >= -1001
t_1_3 - t_1_2 + 1000.000000 u_1_2_3 - 1.232924 s_1_2  + 1.232924 s_1_8  + 2000.000000 r_1_2_3 > 1.556400
s_2_3 + s_2_2 + 1000 r_2_2_3 >= 2
- s_2_3 - s_2_2 - 1000 r_2_2_3 >= -1001
t_2_3 - t_2_2 + 1000.000000 u_2_2_3 - 1.006486 s_2_2  + 1.006486 s_2_8  + 2000.000000 r_2_2_3 > 8.618284
t_1_4 - t_1_3 - 1001.232924 s_1_3  + 1.232924 s_1_8  > -998.352944
t_1_4 - t_2_3 - 1001.006486 s_2_3  + 1.006486 s_2_8  > -987.212582
t_2_4 - t_1_3 - 1001.232924 s_1_3  + 1.232924 s_1_8  > -998.352944
t_2_4 - t_2_3 - 1001.006486 s_2_3  + 1.006486 s_2_8  > -987.212582
s_1_3 + s_1_5 + 1000 r_1_3_5 >= 2
- s_1_3 - s_1_5 - 1000 r_1_3_5 >= -1001
t_1_3 - t_1_5 - 1000.000000 u_1_3_5 - 2.465847 s_1_5  + 1.232924 s_1_7  + 1.232924 s_1_8  + 2000.000000 r_1_3_5 > -999.154778
s_2_3 + s_2_5 + 1000 r_2_3_5 >= 2
- s_2_3 - s_2_5 - 1000 r_2_3_5 >= -1001
t_2_3 - t_2_5 - 1000.000000 u_2_3_5 - 2.012972 s_2_5  + 1.006486 s_2_7  + 1.006486 s_2_8  + 2000.000000 r_2_3_5 > -993.771886
t_1_6 - t_1_3 - 1001.232924 s_1_3  + 1.232924 s_1_8  > -998.352944
t_1_6 - t_2_3 - 1001.006486 s_2_3  + 1.006486 s_2_8  > -987.212582
t_2_6 - t_1_3 - 1001.232924 s_1_3  + 1.232924 s_1_8  > -998.352944
t_2_6 - t_2_3 - 1001.006486 s_2_3  + 1.006486 s_2_8  > -987.212582
s_1_3 + s_1_7 + 1000 r_1_3_7 >= 2
- s_1_3 - s_1_7 - 1000 r_1_3_7 >= -1001
t_1_3 - t_1_7 - 1000.000000 u_1_3_7 - 0.000000 s_1_7  + 2000.000000 r_1_3_7 > -995.362206
s_2_3 + s_2_7 + 1000 r_2_3_7 >= 2
- s_2_3 - s_2_7 - 1000 r_2_3_7 >= -1001
t_2_3 - t_2_7 - 1000.000000 u_2_3_7 - 0.000000 s_2_7  + 2000.000000 r_2_3_7 > -981.304279
t_1_3 - t_1_8 - 1000.000000 s_1_8  > -998.162656
t_1_3 - t_2_8 - 1000.000000 s_2_8  > -993.675957
t_2_3 - t_1_8 - 1000.000000 s_1_8  > -998.162656
t_2_3 - t_2_8 - 1000.000000 s_2_8  > -993.675957
s_1_4 + s_1_1 + 1000 r_1_1_4 >= 2
- s_1_4 - s_1_1 - 1000 r_1_1_4 >= -1001
t_1_4 - t_1_1 + 1000.000000 u_1_1_4 - 1.232924 s_1_1  + 1.232924 s_1_7  + 2000.000000 r_1_1_4 > 1.264589
s_2_4 + s_2_1 + 1000 r_2_1_4 >= 2
- s_2_4 - s_2_1 - 1000 r_2_1_4 >= -1001
t_2_4 - t_2_1 + 1000.000000 u_2_1_4 - 1.006486 s_2_1  + 1.006486 s_2_7  + 2000.000000 r_2_1_4 > 7.894353
s_1_4 + s_1_2 + 1000 r_1_2_4 >= 2
- s_1_4 - s_1_2 - 1000 r_1_2_4 >= -1001
t_1_4 - t_1_2 + 1000.000000 u_1_2_4 - 1.232924 s_1_2  + 1.232924 s_1_8  + 2000.000000 r_1_2_4 > 1.556400
s_2_4 + s_2_2 + 1000 r_2_2_4 >= 2
- s_2_4 - s_2_2 - 1000 r_2_2_4 >= -1001
t_2_4 - t_2_2 + 1000.000000 u_2_2_4 - 1.006486 s_2_2  + 1.006486 s_2_8  + 2000.000000 r_2_2_4 > 8.618284
s_1_4 + s_1_5 + 1000 r_1_4_5 >= 2
- s_1_4 - s_1_5 - 1000 r_1_4_5 >= -1001
t_1_4 - t_1_5 - 1000.000000 u_1_4_5 - 2.465847 s_1_5  + 1.232924 s_1_7  + 1.232924 s_1_8  + 2000.000000 r_1_4_5 > -999.154778
s_2_4 + s_2_5 + 1000 r_2_4_5 >= 2
- s_2_4 - s_2_5 - 1000 r_2_4_5 >= -1001
t_2_4 - t_2_5 - 1000.000000 u_2_4_5 - 2.012972 s_2_5  + 1.006486 s_2_7  + 1.006486 s_2_8  + 2000.000000 r_2_4_5 > -993.771886
t_1_6 - t_1_4 - 1002.465847 s_1_4  + 1.232924 s_1_8  + 1.232924 s_1_3  > -999.081500
t_1_6 - t_2_4 - 1002.012972 s_2_4  + 1.006486 s_2_8  + 1.006486 s_2_3  > -992.750181
t_2_6 - t_1_4 - 1002.465847 s_1_4  + 1.232924 s_1_8  + 1.232924 s_1_3  > -999.081500
t_2_6 - t_2_4 - 1002.012972 s_2_4  + 1.006486 s_2_8  + 1.006486 s_2_3  > -992.750181
s_1_4 + s_1_7 + 1000 r_1_4_7 >= 2
- s_1_4 - s_1_7 - 1000 r_1_4_7 >= -1001
t_1_4 - t_1_7 - 1000.000000 u_1_4_7 - 0.000000 s_1_7  + 2000.000000 r_1_4_7 > -995.362206
s_2_4 + s_2_7 + 1000 r_2_4_7 >= 2
- s_2_4 - s_2_7 - 1000 r_2_4_7 >= -1001
t_2_4 - t_2_7 - 1000.000000 u_2_4_7 - 0.000000 s_2_7  + 2000.000000 r_2_4_7 > -981.304279
t_1_4 - t_1_8 - 1000.000000 s_1_8  > -998.162656
t_1_4 - t_2_8 - 1000.000000 s_2_8  > -993.675957
t_2_4 - t_1_8 - 1000.000000 s_1_8  > -998.162656
t_2_4 - t_2_8 - 1000.000000 s_2_8  > -993.675957
s_1_5 + s_1_1 + 1000 r_1_1_5 >= 2
- s_1_5 - s_1_1 - 1000 r_1_1_5 >= -1001
t_1_5 - t_1_1 + 1000.000000 u_1_1_5 - 1.232924 s_1_1  + 1.232924 s_1_7  + 2000.000000 r_1_1_5 > 1.264589
s_2_5 + s_2_1 + 1000 r_2_1_5 >= 2
- s_2_5 - s_2_1 - 1000 r_2_1_5 >= -1001
t_2_5 - t_2_1 + 1000.000000 u_2_1_5 - 1.006486 s_2_1  + 1.006486 s_2_7  + 2000.000000 r_2_1_5 > 7.894353
s_1_5 + s_1_2 + 1000 r_1_2_5 >= 2
- s_1_5 - s_1_2 - 1000 r_1_2_5 >= -1001
t_1_5 - t_1_2 + 1000.000000 u_1_2_5 - 1.232924 s_1_2  + 1.232924 s_1_8  + 2000.000000 r_1_2_5 > 1.556400
s_2_5 + s_2_2 + 1000 r_2_2_5 >= 2
- s_2_5 - s_2_2 - 1000 r_2_2_5 >= -1001
t_2_5 - t_2_2 + 1000.000000 u_2_2_5 - 1.006486 s_2_2  + 1.006486 s_2_8  + 2000.000000 r_2_2_5 > 8.618284
s_1_5 + s_1_3 + 1000 r_1_3_5 >= 2
- s_1_5 - s_1_3 - 1000 r_1_3_5 >= -1001
t_1_5 - t_1_3 + 1000.000000 u_1_3_5 - 1.232924 s_1_3  + 1.232924 s_1_8  + 2000.000000 r_1_3_5 > 1.647056
s_2_5 + s_2_3 + 1000 r_2_3_5 >= 2
- s_2_5 - s_2_3 - 1000 r_2_3_5 >= -1001
t_2_5 - t_2_3 + 1000.000000 u_2_3_5 - 1.006486 s_2_3  + 1.006486 s_2_8  + 2000.000000 r_2_3_5 > 12.787418
s_1_5 + s_1_4 + 1000 r_1_4_5 >= 2
- s_1_5 - s_1_4 - 1000 r_1_4_5 >= -1001
t_1_5 - t_1_4 + 1000.000000 u_1_4_5 - 2.465847 s_1_4  + 1.232924 s_1_8  + 1.232924 s_1_3  + 2000.000000 r_1_4_5 > 0.918500
s_2_5 + s_2_4 + 1000 r_2_4_5 >= 2
- s_2_5 - s_2_4 - 1000 r_2_4_5 >= -1001
t_2_5 - t_2_4 + 1000.000000 u_2_4_5 - 2.012972 s_2_4  + 1.006486 s_2_8  + 1.006486 s_2_3  + 2000.000000 r_2_4_5 > 7.249819
t_1_6 - t_1_5 - 1002.465847 s_1_5  + 1.232924 s_1_7  + 1.232924 s_1_8  > -999.154778
t_1_6 - t_2_5 - 1002.012972 s_2_5  + 1.006486 s_2_7  + 1.006486 s_2_8  > -993.771886
t_2_6 - t_1_5 - 1002.465847 s_1_5  + 1.232924 s_1_7  + 1.232924 s_1_8  > -999.154778
t_2_6 - t_2_5 - 1002.012972 s_2_5  + 1.006486 s_2_7  + 1.006486 s_2_8  > -993.771886
t_1_5 - t_1_7 - 1000.000000 s_1_7  > -995.362206
t_1_5 - t_2_7 - 1000.000000 s_2_7  > -981.304279
t_2_5 - t_1_7 - 1000.000000 s_1_7  > -995.362206
t_2_5 - t_2_7 - 1000.000000 s_2_7  > -981.304279
t_1_5 - t_1_8 - 1000.000000 s_1_8  > -998.162656
t_1_5 - t_2_8 - 1000.000000 s_2_8  > -993.675957
t_2_5 - t_1_8 - 1000.000000 s_1_8  > -998.162656
t_2_5 - t_2_8 - 1000.000000 s_2_8  > -993.675957
s_1_7 + s_1_2 + 1000 r_1_2_7 >= 2
- s_1_7 - s_1_2 - 1000 r_1_2_7 >= -1001
t_1_7 - t_1_2 + 1000.000000 u_1_2_7 - 1.232924 s_1_2  + 1.232924 s_1_8  + 2000.000000 r_1_2_7 > 1.556400
s_2_7 + s_2_2 + 1000 r_2_2_7 >= 2
- s_2_7 - s_2_2 - 1000 r_2_2_7 >= -1001
t_2_7 - t_2_2 + 1000.000000 u_2_2_7 - 1.006486 s_2_2  + 1.006486 s_2_8  + 2000.000000 r_2_2_7 > 8.618284
s_1_7 + s_1_3 + 1000 r_1_3_7 >= 2
- s_1_7 - s_1_3 - 1000 r_1_3_7 >= -1001
t_1_7 - t_1_3 + 1000.000000 u_1_3_7 - 1.232924 s_1_3  + 1.232924 s_1_8  + 2000.000000 r_1_3_7 > 1.647056
s_2_7 + s_2_3 + 1000 r_2_3_7 >= 2
- s_2_7 - s_2_3 - 1000 r_2_3_7 >= -1001
t_2_7 - t_2_3 + 1000.000000 u_2_3_7 - 1.006486 s_2_3  + 1.006486 s_2_8  + 2000.000000 r_2_3_7 > 12.787418
s_1_7 + s_1_4 + 1000 r_1_4_7 >= 2
- s_1_7 - s_1_4 - 1000 r_1_4_7 >= -1001
t_1_7 - t_1_4 + 1000.000000 u_1_4_7 - 2.465847 s_1_4  + 1.232924 s_1_8  + 1.232924 s_1_3  + 2000.000000 r_1_4_7 > 0.918500
s_2_7 + s_2_4 + 1000 r_2_4_7 >= 2
- s_2_7 - s_2_4 - 1000 r_2_4_7 >= -1001
t_2_7 - t_2_4 + 1000.000000 u_2_4_7 - 2.012972 s_2_4  + 1.006486 s_2_8  + 1.006486 s_2_3  + 2000.000000 r_2_4_7 > 7.249819
s_1_7 + s_1_8 + 1000 r_1_7_8 >= 2
- s_1_7 - s_1_8 - 1000 r_1_7_8 >= -1001
t_1_7 - t_1_8 - 1000.000000 u_1_7_8 - 0.000000 s_1_8  + 2000.000000 r_1_7_8 > -998.162656
s_2_7 + s_2_8 + 1000 r_2_7_8 >= 2
- s_2_7 - s_2_8 - 1000 r_2_7_8 >= -1001
t_2_7 - t_2_8 - 1000.000000 u_2_7_8 - 0.000000 s_2_8  + 2000.000000 r_2_7_8 > -993.675957
s_1_8 + s_1_1 + 1000 r_1_1_8 >= 2
- s_1_8 - s_1_1 - 1000 r_1_1_8 >= -1001
t_1_8 - t_1_1 + 1000.000000 u_1_1_8 - 1.232924 s_1_1  + 1.232924 s_1_7  + 2000.000000 r_1_1_8 > 1.264589
s_2_8 + s_2_1 + 1000 r_2_1_8 >= 2
- s_2_8 - s_2_1 - 1000 r_2_1_8 >= -1001
t_2_8 - t_2_1 + 1000.000000 u_2_1_8 - 1.006486 s_2_1  + 1.006486 s_2_7  + 2000.000000 r_2_1_8 > 7.894353
s_1_8 + s_1_7 + 1000 r_1_7_8 >= 2
- s_1_8 - s_1_7 - 1000 r_1_7_8 >= -1001
t_1_8 - t_1_7 + 1000.000000 u_1_7_8 - 0.000000 s_1_7  + 2000.000000 r_1_7_8 > 4.637794
s_2_8 + s_2_7 + 1000 r_2_7_8 >= 2
- s_2_8 - s_2_7 - 1000 r_2_7_8 >= -1001
t_2_8 - t_2_7 + 1000.000000 u_2_7_8 - 0.000000 s_2_7  + 2000.000000 r_2_7_8 > 18.695721
Binary
s_1_1
s_2_1
s_1_2
s_2_2
s_1_3
s_2_3
s_1_4
s_2_4
s_1_5
s_2_5
s_1_6
s_2_6
s_1_7
s_2_7
s_1_8
s_2_8
u_1_1_2
r_1_1_2
u_2_1_2
r_2_1_2
u_1_1_3
r_1_1_3
u_2_1_3
r_2_1_3
u_1_1_4
r_1_1_4
u_2_1_4
r_2_1_4
u_1_1_5
r_1_1_5
u_2_1_5
r_2_1_5
u_1_1_8
r_1_1_8
u_2_1_8
r_2_1_8
u_1_2_3
r_1_2_3
u_2_2_3
r_2_2_3
u_1_2_4
r_1_2_4
u_2_2_4
r_2_2_4
u_1_2_5
r_1_2_5
u_2_2_5
r_2_2_5
u_1_2_7
r_1_2_7
u_2_2_7
r_2_2_7
u_1_3_5
r_1_3_5
u_2_3_5
r_2_3_5
u_1_3_7
r_1_3_7
u_2_3_7
r_2_3_7
u_1_4_5
r_1_4_5
u_2_4_5
r_2_4_5
u_1_4_7
r_1_4_7
u_2_4_7
r_2_4_7
u_1_7_8
r_1_7_8
u_2_7_8
r_2_7_8

End
